; benchmark generated from python API
(set-info :status unknown)
(declare-fun R_S1_V3 () Bool)
(declare-fun W_S1_V3 () Bool)
(declare-fun DISJ_W_S1_R_S1 () Bool)
(declare-fun R_E1_V6 () Bool)
(declare-fun W_S1_V6 () Bool)
(declare-fun R_E2_V6 () Bool)
(declare-fun W_S1_V1 () Bool)
(declare-fun R_S1_V6 () Bool)
(declare-fun R_S1_V4 () Bool)
(declare-fun R_S1_V5 () Bool)
(declare-fun R_S1_V2 () Bool)
(declare-fun R_S1_V1 () Bool)
(declare-fun R_E2_V4 () Bool)
(declare-fun R_E2_V2 () Bool)
(declare-fun R_E1_V5 () Bool)
(declare-fun R_E2_V5 () Bool)
(declare-fun W_S1_V5 () Bool)
(declare-fun W_S1_V4 () Bool)
(declare-fun W_S1_V2 () Bool)
(declare-fun R_E1_V3 () Bool)
(declare-fun R_E1_V1 () Bool)
(declare-fun R_E2_V3 () Bool)
(declare-fun R_E2_V1 () Bool)
(declare-fun DISJ_W_S1_R_E1 () Bool)
(declare-fun DISJ_W_S1_R_E2 () Bool)
(assert
 (let (($x3244 (not DISJ_W_S1_R_S1)))
 (let (($x1707 (not (and W_S1_V6 R_E1_V6))))
 (let (($x2871 (not (and W_S1_V6 R_E2_V6))))
 (let (($x1622 (forall ((V2_0 Int) )(forall ((V5_0 Int) )(forall ((V4_0 Int) )(forall ((V6_0 Int) )(forall ((MW_S1_V1 Bool) )(forall ((MW_S1_V3 Bool) )(forall ((MW_S1_V2 Bool) )(forall ((MW_S1_V5 Bool) )(forall ((MW_S1_V4 Bool) )(forall ((MW_S1_V6 Bool) )(forall ((S1_V1_!8171 Int) )(forall ((S1_V1_!8178 Int) )(forall ((S1_V1_!8187 Int) )(forall ((S1_V1_!8193 Int) )(forall ((S1_V3_!8172 Int) )(forall ((S1_V3_!8179 Int) )(forall ((S1_V3_!8188 Int) )(forall ((S1_V3_!8194 Int) )(forall ((S1_V2_!8173 Int) )(forall ((S1_V2_!8180 Int) )(forall ((S1_V2_!8189 Int) )(forall ((S1_V2_!8195 Int) )(forall ((E1_!8168 Int) )(forall ((E1_!8184 Int) )(forall ((E1_!8186 Int) )(forall ((S1_V5_!8174 Int) )(forall ((S1_V5_!8181 Int) )(forall ((S1_V5_!8190 Int) )(forall ((S1_V5_!8196 Int) )(forall ((E2_!8169 Int) )(forall ((E2_!8170 Int) )(forall ((E2_!8177 Int) )(forall ((E2_!8185 Int) )(forall ((S1_V4_!8175 Int) )(forall ((S1_V4_!8182 Int) )(forall ((S1_V4_!8191 Int) )(forall ((S1_V4_!8197 Int) )(forall ((S1_V6_!8176 Int) )(forall ((S1_V6_!8183 Int) )(forall ((S1_V6_!8192 Int) )(forall ((S1_V6_!8198 Int) )(let ((?x4892 (ite MW_S1_V1 S1_V1_!8187 E1_!8186)))
 (let ((?x1373 (+ 1 ?x4892)))
 (let ((?x2679 (ite MW_S1_V1 S1_V1_!8193 ?x1373)))
 (let ((?x1294 (ite MW_S1_V1 S1_V1_!8171 E1_!8168)))
 (let ((?x3062 (+ 1 ?x1294)))
 (let ((?x2631 (ite MW_S1_V1 S1_V1_!8178 ?x3062)))
 (let (($x3813 (and (= ?x2631 ?x2679) (= (ite MW_S1_V3 S1_V3_!8179 E2_!8177) (ite MW_S1_V3 S1_V3_!8194 E2_!8185)) (= (ite MW_S1_V2 S1_V2_!8180 V2_0) (ite MW_S1_V2 S1_V2_!8195 V2_0)) (= (ite MW_S1_V5 S1_V5_!8181 V5_0) (ite MW_S1_V5 S1_V5_!8196 V5_0)) (= (ite MW_S1_V4 S1_V4_!8182 V4_0) (ite MW_S1_V4 S1_V4_!8197 V4_0)) (= (ite MW_S1_V6 S1_V6_!8183 V6_0) (ite MW_S1_V6 S1_V6_!8198 V6_0)))))
 (let (($x4880 (and (not (<= V4_0 E2_!8169)) (not (<= V2_0 E1_!8168)) (not (<= V4_0 E2_!8170)) (>= (ite MW_S1_V3 S1_V3_!8172 E2_!8170) (+ (- 1) (ite MW_S1_V4 S1_V4_!8175 V4_0))) (not (<= (ite MW_S1_V2 S1_V2_!8173 V2_0) ?x3062)) (not (<= (ite MW_S1_V4 S1_V4_!8175 V4_0) E2_!8177)) (>= (ite MW_S1_V3 S1_V3_!8179 E2_!8177) (+ (- 1) (ite MW_S1_V4 S1_V4_!8182 V4_0))) (>= ?x2631 (+ (- 1) (ite MW_S1_V2 S1_V2_!8180 V2_0))) (not (<= V2_0 E1_!8184)) (not (<= V4_0 E2_!8185)) (not (<= V2_0 E1_!8186)) (not (<= (ite MW_S1_V2 S1_V2_!8189 V2_0) ?x1373)) (>= ?x2679 (+ (- 1) (ite MW_S1_V2 S1_V2_!8195 V2_0))) (>= (ite MW_S1_V3 S1_V3_!8194 E2_!8185) (+ (- 1) (ite MW_S1_V4 S1_V4_!8197 V4_0))))))
 (let (($x5771 (= S1_V6_!8198 S1_V6_!8192)))
 (let (($x5281 (not R_S1_V6)))
 (let (($x1332 (or $x5281 (= (ite MW_S1_V6 S1_V6_!8192 V6_0) V6_0))))
 (let (($x5086 (not R_S1_V4)))
 (let (($x1593 (or $x5086 (= (ite MW_S1_V4 S1_V4_!8191 V4_0) V4_0))))
 (let (($x3698 (not R_S1_V5)))
 (let (($x4528 (or $x3698 (= (ite MW_S1_V5 S1_V5_!8190 V5_0) V5_0))))
 (let (($x2582 (not R_S1_V2)))
 (let (($x1953 (or $x2582 (= (ite MW_S1_V2 S1_V2_!8189 V2_0) V2_0))))
 (let (($x671 (and (or (not R_S1_V1) (= ?x4892 (+ (- 1) E1_!8186))) (or (not R_S1_V3) (= (ite MW_S1_V3 S1_V3_!8188 E2_!8185) E2_!8185)) $x1953 $x4528 $x1593 $x1332)))
 (let (($x1651 (= S1_V6_!8198 S1_V6_!8183)))
 (let (($x3626 (and (or (not R_S1_V1) (= ?x4892 ?x1294)) (or (not R_S1_V3) (= (ite MW_S1_V3 S1_V3_!8188 E2_!8185) E2_!8177)) (or $x2582 (= (ite MW_S1_V2 S1_V2_!8189 V2_0) (ite MW_S1_V2 S1_V2_!8173 V2_0))) (or $x3698 (= (ite MW_S1_V5 S1_V5_!8190 V5_0) (ite MW_S1_V5 S1_V5_!8174 V5_0))) (or $x5086 (= (ite MW_S1_V4 S1_V4_!8191 V4_0) (ite MW_S1_V4 S1_V4_!8175 V4_0))) (or $x5281 (= (ite MW_S1_V6 S1_V6_!8192 V6_0) (ite MW_S1_V6 S1_V6_!8176 V6_0))))))
 (let (($x2527 (not $x3626)))
 (let (($x1033 (and (or (not R_S1_V1) (= ?x4892 (+ (- 1) E1_!8168))) (or (not R_S1_V3) (= (ite MW_S1_V3 S1_V3_!8188 E2_!8185) E2_!8170)) $x1953 $x4528 $x1593 $x1332)))
 (let (($x2370 (not $x1033)))
 (let ((?x5438 (ite MW_S1_V6 S1_V6_!8176 V6_0)))
 (let (($x91 (= V6_0 ?x5438)))
 (let (($x1111 (or $x5281 $x91)))
 (let ((?x2528 (ite MW_S1_V4 S1_V4_!8175 V4_0)))
 (let (($x1721 (= V4_0 ?x2528)))
 (let (($x5071 (or $x5086 $x1721)))
 (let (($x3231 (or $x3698 (= V5_0 (ite MW_S1_V5 S1_V5_!8174 V5_0)))))
 (let ((?x3631 (ite MW_S1_V2 S1_V2_!8173 V2_0)))
 (let (($x2782 (= V2_0 ?x3631)))
 (let (($x3303 (or $x2582 $x2782)))
 (let (($x3137 (and (or (not R_S1_V1) (= E1_!8186 ?x3062)) (or (not R_S1_V3) (= E2_!8185 E2_!8177)) $x3303 $x3231 $x5071 $x1111)))
 (let (($x4668 (not $x3137)))
 (let (($x5191 (and (or (not R_S1_V1) (= E1_!8186 E1_!8168)) (or (not R_S1_V3) (= E2_!8185 E2_!8170)))))
 (let (($x3041 (not $x5191)))
 (let (($x4141 (and (or (not R_S1_V1) (= E1_!8168 ?x3062)) (or (not R_S1_V3) (= E2_!8170 E2_!8177)) $x3303 $x3231 $x5071 $x1111)))
 (let (($x5264 (not $x4141)))
 (let (($x639 (or $x5281 (= V6_0 (ite MW_S1_V6 S1_V6_!8192 V6_0)))))
 (let (($x4821 (or $x5086 (= V4_0 (ite MW_S1_V4 S1_V4_!8191 V4_0)))))
 (let (($x366 (or $x3698 (= V5_0 (ite MW_S1_V5 S1_V5_!8190 V5_0)))))
 (let (($x2878 (or $x2582 (= V2_0 (ite MW_S1_V2 S1_V2_!8189 V2_0)))))
 (let (($x3312 (and (or (not R_S1_V1) (= E1_!8186 ?x1373)) (or (not R_S1_V3) (= E2_!8185 (ite MW_S1_V3 S1_V3_!8188 E2_!8185))) $x2878 $x366 $x4821 $x639)))
 (let (($x3108 (not $x3312)))
 (let (($x1207 (and (or (not R_S1_V1) (= E1_!8168 ?x1373)) (or (not R_S1_V3) (= E2_!8170 (ite MW_S1_V3 S1_V3_!8188 E2_!8185))) $x2878 $x366 $x4821 $x639)))
 (let (($x3424 (not $x1207)))
 (let (($x2158 (and (or (not R_S1_V1) (= E1_!8168 E1_!8186)) (or (not R_S1_V3) (= E2_!8170 E2_!8185)))))
 (let (($x1388 (not $x2158)))
 (let (($x6020 (= E2_!8185 E2_!8177)))
 (let (($x3487 (and (or (not R_E2_V2) $x2782) (or (not R_E2_V4) $x1721) (or (not R_E2_V6) $x91))))
 (let (($x1713 (= E2_!8185 E2_!8170)))
 (let (($x3290 (= E2_!8177 E2_!8170)))
 (let (($x20 (and (or (not R_E2_V2) (= ?x3631 V2_0)) (or (not R_E2_V4) (= ?x2528 V4_0)) (or (not R_E2_V6) (= ?x5438 V6_0)))))
 (let (($x2500 (not $x20)))
 (let (($x4248 (= E1_!8186 E1_!8168)))
 (let (($x556 (and (or (not R_S1_V1) (= ?x1294 ?x4892)) (or (not R_S1_V3) (= E2_!8177 (ite MW_S1_V3 S1_V3_!8188 E2_!8185))) (or $x2582 (= ?x3631 (ite MW_S1_V2 S1_V2_!8189 V2_0))) (or $x3698 (= (ite MW_S1_V5 S1_V5_!8174 V5_0) (ite MW_S1_V5 S1_V5_!8190 V5_0))) (or $x5086 (= ?x2528 (ite MW_S1_V4 S1_V4_!8191 V4_0))) (or $x5281 (= ?x5438 (ite MW_S1_V6 S1_V6_!8192 V6_0))))))
 (let (($x5542 (not $x556)))
 (let (($x2292 (= ?x5438 V6_0)))
 (let (($x526 (or $x5281 $x2292)))
 (let (($x4982 (= ?x2528 V4_0)))
 (let (($x3748 (or $x5086 $x4982)))
 (let (($x485 (or $x3698 (= (ite MW_S1_V5 S1_V5_!8174 V5_0) V5_0))))
 (let (($x4268 (= ?x3631 V2_0)))
 (let (($x959 (or $x2582 $x4268)))
 (let (($x3095 (and (or (not R_S1_V1) (= ?x1294 (+ (- 1) E1_!8186))) (or (not R_S1_V3) (= E2_!8177 E2_!8185)) $x959 $x485 $x3748 $x526)))
 (let (($x2015 (not $x3095)))
 (let (($x6015 (and (or (not R_S1_V1) (= ?x1294 (+ (- 1) E1_!8168))) (or (not R_S1_V3) $x3290) $x959 $x485 $x3748 $x526)))
 (let (($x3313 (and (or $x5264 (= S1_V1_!8171 S1_V1_!8178)) (or $x1388 (= S1_V1_!8171 S1_V1_!8187)) (or $x3424 (= S1_V1_!8171 S1_V1_!8193)) (or $x2015 (= S1_V1_!8178 S1_V1_!8187)) (or $x5542 (= S1_V1_!8178 S1_V1_!8193)) (or $x3108 (= S1_V1_!8187 S1_V1_!8193)) (or (not $x6015) (= S1_V3_!8179 S1_V3_!8172)) (or $x2015 (= S1_V3_!8179 S1_V3_!8188)) (or $x5542 (= S1_V3_!8179 S1_V3_!8194)) (or $x3041 (= S1_V3_!8188 S1_V3_!8172)) (or $x3108 (= S1_V3_!8188 S1_V3_!8194)) (or $x2370 (= S1_V3_!8194 S1_V3_!8172)) (or $x5264 (= S1_V2_!8173 S1_V2_!8180)) (or $x1388 (= S1_V2_!8173 S1_V2_!8189)) (or $x3424 (= S1_V2_!8173 S1_V2_!8195)) (or $x4668 (= S1_V2_!8189 S1_V2_!8180)) (or $x3108 (= S1_V2_!8189 S1_V2_!8195)) (or $x2527 (= S1_V2_!8195 S1_V2_!8180)) (= E1_!8184 E1_!8168) (= E1_!8184 E1_!8186) $x4248 (or $x5264 (= S1_V5_!8174 S1_V5_!8181)) (or $x1388 (= S1_V5_!8174 S1_V5_!8190)) (or $x3424 (= S1_V5_!8174 S1_V5_!8196)) (or $x4668 (= S1_V5_!8190 S1_V5_!8181)) (or $x3108 (= S1_V5_!8190 S1_V5_!8196)) (or $x2527 (= S1_V5_!8196 S1_V5_!8181)) (= E2_!8170 E2_!8169) (or $x2500 (= E2_!8177 E2_!8169)) (or $x2500 $x3290) (= E2_!8185 E2_!8169) $x1713 (or (not $x3487) $x6020) (or $x5264 (= S1_V4_!8175 S1_V4_!8182)) (or $x1388 (= S1_V4_!8175 S1_V4_!8191)) (or $x3424 (= S1_V4_!8175 S1_V4_!8197)) (or $x4668 (= S1_V4_!8191 S1_V4_!8182)) (or $x3108 (= S1_V4_!8191 S1_V4_!8197)) (or $x2527 (= S1_V4_!8197 S1_V4_!8182)) (or $x5264 (= S1_V6_!8176 S1_V6_!8183)) (or $x3041 (= S1_V6_!8192 S1_V6_!8176)) (or $x4668 (= S1_V6_!8192 S1_V6_!8183)) (or $x2370 (= S1_V6_!8198 S1_V6_!8176)) (or $x2527 $x1651) (or (not $x671) $x5771) (or (not MW_S1_V1) W_S1_V1) (or (not MW_S1_V3) W_S1_V3) (not MW_S1_V2) (not MW_S1_V4) (or (not MW_S1_V6) W_S1_V6))))
 (or (not $x3313) (not $x4880) $x3813)))))))))))))))))))))))))))))))))))))))))))))))))))))))))))))))))))))))
 )
 )
 )
 )
 )
 )
 )
 )
 )
 )
 )
 )
 )
 )
 )
 )
 )
 )
 )
 )
 )
 )
 )
 )
 )
 )
 )
 )
 )
 )
 )
 )
 )
 )
 )
 )
 )
 )
 )
 )
 ))
 (let (($x625 (not R_E1_V5)))
 (let (($x4676 (and W_S1_V6 R_S1_V6)))
 (let (($x1494 (and W_S1_V3 R_S1_V3)))
 (let (($x5045 (and W_S1_V1 R_S1_V1)))
 (let (($x1853 (= DISJ_W_S1_R_S1 (not (or $x5045 $x1494 R_S1_V5 $x4676)))))
 (let (($x2637 (not R_E2_V5)))
 (let (($x2522 (or DISJ_W_S1_R_S1 (not W_S1_V1))))
 (let (($x2674 (not W_S1_V4)))
 (let (($x363 (not W_S1_V2)))
 (let (($x2032 (not R_E1_V3)))
 (let (($x4856 (not R_E1_V1)))
 (let (($x2473 (not R_E2_V3)))
 (let (($x2727 (not R_E2_V1)))
 (let (($x3360 (and DISJ_W_S1_R_E2 DISJ_W_S1_R_E1 $x2727 $x2473 $x4856 $x2032 $x363 $x2674 $x2522 W_S1_V5 $x2637 $x1853 $x625 $x1622 $x2871 $x1707)))
 (and $x3360 $x3244 W_S1_V3 R_S1_V3))))))))))))))))))))
(check-sat)
